/* Objective function */
min: +C16 +C17 +C18;

/* Constraints */
+10 C1 +2 C2 +17 C3 +13 C4 +4 C5 <= 20;
+10 C6 +2 C7 +17 C8 +13 C9 +4 C10 <= 20;
+10 C11 +2 C12 +17 C13 +13 C14 +4 C15 <= 20;
+5 C1 +3 C2 +10 C3 +C4 +9 C5 <= 11;
+5 C6 +3 C7 +10 C8 +C9 +9 C10 <= 11;
+5 C11 +3 C12 +10 C13 +C14 +9 C15 <= 11;
+C1 +C6 +C11 = 1;
+C2 +C7 +C12 = 1;
+C3 +C8 +C13 = 1;
+C4 +C9 +C14 = 1;
+C5 +C10 +C15 = 1;
+5 C1 +3 C2 +10 C3 +C4 +9 C5 -5 C6 -3 C7 -10 C8 -C9 -9 C10 -C16 <= 0;
-5 C1 -3 C2 -10 C3 -C4 -9 C5 +5 C6 +3 C7 +10 C8 +C9 +9 C10 -C16 <= 0;
+5 C1 +3 C2 +10 C3 +C4 +9 C5 -5 C11 -3 C12 -10 C13 -C14 -9 C15 -C17 <= 0;
-5 C1 -3 C2 -10 C3 -C4 -9 C5 +5 C11 +3 C12 +10 C13 +C14 +9 C15 -C17 <= 0;
+5 C6 +3 C7 +10 C8 +C9 +9 C10 -5 C11 -3 C12 -10 C13 -C14 -9 C15 -C18 <= 0;
-5 C6 -3 C7 -10 C8 -C9 -9 C10 +5 C11 +3 C12 +10 C13 +C14 +9 C15 -C18 <= 0;

/* Variable bounds */
C1 <= 1;
C2 <= 1;
C3 <= 1;
C4 <= 1;
C5 <= 1;
C6 <= 1;
C7 <= 1;
C8 <= 1;
C9 <= 1;
C10 <= 1;
C11 <= 1;
C12 <= 1;
C13 <= 1;
C14 <= 1;
C15 <= 1;

/* Integer definitions */
int C1,C2,C3,C4,C5,C6,C7,C8,C9,C10,C11,C12,C13,C14,C15,C16,C17,C18;
